letting n =  10
letting blocks =  [[1, 2], [1, 5], [1, 9], [2, 2], [2, 3], [2, 5], [2, 9], [2, 10], [3, 8], [3, 9], [4, 2], [4, 4], [4, 7], [4, 9], [5, 3], [5, 8], [6, 10], [7, 1], [7, 5], [7, 6], [9, 8], [9, 9], [10, 5], [10, 9]]
